(set-info :smt-lib-version 2.6)
(set-logic QF_SLIA)
(set-info :source |
Generated by: Joel Day, Thorsten Ehlers, Mitja Kulczynski, Federico Mora, Florin Manea, Dirk Nowotka, Danny Poulsen, Zhengyang Lu
Application: Test WOORPJE
Target solver: WOORPJE
Publications: Day, J. D., Ehlers, T., Kulczynski, M., Manea, F., Nowotka, D., & Poulsen, D. B. (2019). On solving word equations using SAT. In RP 2019
Description: Enriches a system of 30 word equations by suitable linear constraints
|)
(set-info :license "https://creativecommons.org/licenses/by/4.0/")
(set-info :category "random")
(set-info :status unknown)

(declare-fun I () String)
(declare-fun H () String)
(declare-fun G () String)
(declare-fun D () String)
(assert (= (str.++  "ebbd" I "d" D "dedbbbef")  (str.++  "eb" I I "ddcdbecddcdfb" G "afbfdedbbbef") ))
(assert (= (str.++  "fbbbbc" I "dadbbcaffaecbfdddbadaeaceccbcfcd")  (str.++  "fbbbbcbddadbbcaffaecbfdddbadaeaceccbcfcd" "") ))
(assert (= (str.++  "cbfbeacba" I "aaffaebaffccdbbf" I "aafffdeeeee")  (str.++  "cbfbeacba" I "aaffaebaffccdbbf" I "aafff" H "eee") ))
(assert (<=(* (str.len G) 10) 440))
(assert (>=(* (str.len D) 9) 162))
(assert (<=(* (str.len I) 1) 6))
(assert (>=(* (str.len H) 15) 45))
(check-sat)

(exit)
